37
[[-1, 0, 0, 45396, 40064, 0, 0, 0, 38126, 0, 34049, 0, 44138, 0, 0, 0, 0, 41726, 0, 0, 0, 0, 0, 0, 0, 37352, 0, 0, 0, 0, 0, 33589, 0, 0, 0, 0, 0],[0, -1, 0, 0, 0, 0, 0, 0, 0, 0, 17538, 0, 0, 0, 0, 0, 38247, 0, 12930, 0, 0, 41848, 0, 0, 0, 0, 0, 37104, 0, 0, 0, 0, 0, 0, 0, 0, 0],[0, 0, -1, 0, 0, 0, 0, 0, 0, 33287, 0, 42645, 0, 0, 26955, 0, 0, 9876, 0, 0, 26087, 0, 0, 22532, 0, 0, 0, 19232, 0, 0, 0, 0, 0, 0, 0, 0, 19473],[45396, 0, 0, -1, 0, 0, 0, 0, 0, 20499, 0, 0, 0, 0, 0, 0, 0, 39008, 0, 0, 0, 0, 0, 22778, 14470, 0, 0, 0, 0, 0, 7397, 23163, 0, 36624, 10751, 0, 33571],[40064, 0, 0, 0, -1, 19132, 0, 0, 22377, 0, 19812, 34539, 0, 0, 0, 0, 0, 0, 0, 0, 0, 21745, 0, 0, 0, 0, 0, 0, 0, 45632, 35198, 0, 0, 31514, 0, 14577, 46230],[0, 0, 0, 0, 19132, -1, 0, 0, 0, 0, 18780, 0, 0, 0, 0, 35521, 0, 38957, 0, 0, 21121, 0, 0, 0, 0, 0, 0, 0, 0, 0, 40740, 0, 0, 0, 45916, 0, 0],[0, 0, 0, 0, 0, 0, -1, 30381, 0, 0, 45469, 0, 0, 1952, 0, 0, 0, 0, 0, 0, 0, 0, 0, 0, 11833, 0, 0, 0, 0, 0, 39537, 31339, 0, 0, 0, 0, 0],[0, 0, 0, 0, 0, 0, 30381, -1, 39344, 34275, 0, 0, 0, 26660, 34761, 0, 0, 0, 15543, 0, 41572, 0, 0, 0, 0, 26330, 34329, 0, 0, 0, 0, 0, 0, 0, 0, 31588, 0],[38126, 0, 0, 0, 22377, 0, 0, 39344, -1, 0, 0, 0, 0, 0, 0, 0, 0, 0, 0, 0, 0, 0, 0, 0, 0, 0, 0, 40316, 0, 0, 31653, 22241, 0, 0, 0, 0, 0],[0, 0, 33287, 20499, 0, 0, 0, 34275, 0, -1, 0, 0, 0, 0, 34548, 23438, 0, 38864, 32075, 0, 43933, 24464, 0, 0, 0, 40790, 0, 0, 0, 0, 0, 0, 0, 0, 0, 0, 0],[34049, 17538, 0, 0, 19812, 18780, 45469, 0, 0, 0, -1, 28417, 0, 45830, 0, 0, 13260, 0, 36584, 0, 0, 0, 0, 22085, 0, 0, 0, 0, 40232, 0, 44208, 0, 0, 0, 0, 0, 0],[0, 0, 42645, 0, 34539, 0, 0, 0, 0, 0, 28417, -1, 0, 0, 0, 32879, 0, 0, 0, 38186, 28436, 0, 0, 0, 0, 0, 0, 0, 0, 0, 44124, 0, 0, 0, 0, 0, 0],[44138, 0, 0, 0, 0, 0, 0, 0, 0, 0, 0, 0, -1, 0, 0, 0, 42197, 0, 0, 0, 19654, 0, 29457, 0, 0, 0, 0, 16309, 44790, 0, 25509, 0, 0, 18592, 22216, 0, 0],[0, 0, 0, 0, 0, 0, 1952, 26660, 0, 0, 45830, 0, 0, -1, 45702, 0, 0, 0, 0, 0, 0, 0, 0, 39492, 0, 0, 0, 0, 0, 0, 0, 24776, 0, 21532, 0, 0, 0],[0, 0, 26955, 0, 0, 0, 0, 34761, 0, 34548, 0, 0, 0, 45702, -1, 22198, 35311, 0, 0, 0, 0, 45689, 23368, 24004, 0, 0, 0, 0, 0, 0, 33746, 0, 39387, 0, 0, 31301, 37107],[0, 0, 0, 0, 0, 35521, 0, 0, 0, 23438, 0, 32879, 0, 0, 22198, -1, 0, 33042, 0, 0, 0, 0, 0, 0, 0, 0, 0, 23086, 0, 0, 0, 40501, 0, 0, 0, 0, 0],[0, 38247, 0, 0, 0, 0, 0, 0, 0, 0, 13260, 0, 42197, 0, 35311, 0, -1, 0, 39319, 0, 39462, 0, 0, 0, 0, 34186, 32375, 20843, 0, 0, 44712, 20881, 0, 44974, 0, 0, 0],[41726, 0, 9876, 39008, 0, 38957, 0, 0, 0, 38864, 0, 0, 0, 0, 0, 33042, 0, -1, 0, 43659, 44918, 0, 0, 36668, 0, 0, 32069, 0, 0, 0, 0, 0, 0, 0, 0, 25705, 0],[0, 12930, 0, 0, 0, 0, 0, 15543, 0, 32075, 36584, 0, 0, 0, 0, 0, 39319, 0, -1, 32555, 0, 0, 0, 35600, 0, 0, 0, 0, 32931, 0, 0, 0, 0, 23973, 42290, 0, 0],[0, 0, 0, 0, 0, 0, 0, 0, 0, 0, 0, 38186, 0, 0, 0, 0, 0, 43659, 32555, -1, 44723, 14489, 0, 0, 0, 0, 0, 0, 37825, 0, 12584, 10150, 0, 0, 0, 0, 42781],[0, 0, 26087, 0, 0, 21121, 0, 41572, 0, 43933, 0, 28436, 19654, 0, 0, 0, 39462, 44918, 0, 44723, -1, 0, 24909, 0, 45257, 0, 0, 0, 0, 0, 0, 39822, 0, 43076, 44229, 0, 13849],[0, 41848, 0, 0, 21745, 0, 0, 0, 0, 24464, 0, 0, 0, 0, 45689, 0, 0, 0, 0, 14489, 0, -1, 0, 0, 0, 0, 0, 0, 0, 0, 0, 0, 0, 0, 43155, 0, 0],[0, 0, 0, 0, 0, 0, 0, 0, 0, 0, 0, 0, 29457, 0, 23368, 0, 0, 0, 0, 0, 24909, 0, -1, 42493, 0, 0, 0, 0, 40092, 0, 42984, 0, 0, 41964, 33520, 0, 0],[0, 0, 22532, 22778, 0, 0, 0, 0, 0, 0, 22085, 0, 0, 39492, 24004, 0, 0, 36668, 35600, 0, 0, 0, 42493, -1, 0, 0, 0, 0, 0, 0, 0, 29191, 0, 32632, 15279, 18832, 0],[0, 0, 0, 14470, 0, 0, 11833, 0, 0, 0, 0, 0, 0, 0, 0, 0, 0, 0, 0, 0, 45257, 0, 0, 0, -1, 0, 0, 0, 0, 13520, 0, 0, 0, 0, 0, 0, 0],[37352, 0, 0, 0, 0, 0, 0, 26330, 0, 40790, 0, 0, 0, 0, 0, 0, 34186, 0, 0, 0, 0, 0, 0, 0, 0, -1, 0, 0, 33481, 0, 0, 0, 0, 0, 25489, 0, 19773],[0, 0, 0, 0, 0, 0, 0, 34329, 0, 0, 0, 0, 0, 0, 0, 0, 32375, 32069, 0, 0, 0, 0, 0, 0, 0, 0, -1, 0, 38732, 0, 0, 0, 0, 0, 45523, 0, 38640],[0, 37104, 19232, 0, 0, 0, 0, 0, 40316, 0, 0, 0, 16309, 0, 0, 23086, 20843, 0, 0, 0, 0, 0, 0, 0, 0, 0, 0, -1, 0, 0, 0, 0, 0, 0, 0, 0, 32658],[0, 0, 0, 0, 0, 0, 0, 0, 0, 0, 40232, 0, 44790, 0, 0, 0, 0, 0, 32931, 37825, 0, 0, 40092, 0, 0, 33481, 38732, 0, -1, 0, 0, 0, 25995, 0, 0, 33359, 0],[0, 0, 0, 0, 45632, 0, 0, 0, 0, 0, 0, 0, 0, 0, 0, 0, 0, 0, 0, 0, 0, 0, 0, 0, 13520, 0, 0, 0, 0, -1, 0, 0, 0, 0, 0, 0, 0],[0, 0, 0, 7397, 35198, 40740, 39537, 0, 31653, 0, 44208, 44124, 25509, 0, 33746, 0, 44712, 0, 0, 12584, 0, 0, 42984, 0, 0, 0, 0, 0, 0, 0, -1, 0, 0, 0, 0, 0, 0],[33589, 0, 0, 23163, 0, 0, 31339, 0, 22241, 0, 0, 0, 0, 24776, 0, 40501, 20881, 0, 0, 10150, 39822, 0, 0, 29191, 0, 0, 0, 0, 0, 0, 0, -1, 44933, 0, 0, 0, 0],[0, 0, 0, 0, 0, 0, 0, 0, 0, 0, 0, 0, 0, 0, 39387, 0, 0, 0, 0, 0, 0, 0, 0, 0, 0, 0, 0, 0, 25995, 0, 0, 44933, -1, 6864, 0, 0, 0],[0, 0, 0, 36624, 31514, 0, 0, 0, 0, 0, 0, 0, 18592, 21532, 0, 0, 44974, 0, 23973, 0, 43076, 0, 41964, 32632, 0, 0, 0, 0, 0, 0, 0, 0, 6864, -1, 0, 0, 10391],[0, 0, 0, 10751, 0, 45916, 0, 0, 0, 0, 0, 0, 22216, 0, 0, 0, 0, 0, 42290, 0, 44229, 43155, 33520, 15279, 0, 25489, 45523, 0, 0, 0, 0, 0, 0, 0, -1, 17236, 0],[0, 0, 0, 0, 14577, 0, 0, 31588, 0, 0, 0, 0, 0, 0, 31301, 0, 0, 25705, 0, 0, 0, 0, 0, 18832, 0, 0, 0, 0, 33359, 0, 0, 0, 0, 0, 17236, -1, 0],[0, 0, 19473, 33571, 46230, 0, 0, 0, 0, 0, 0, 0, 0, 0, 37107, 0, 0, 0, 0, 42781, 13849, 0, 0, 0, 0, 19773, 38640, 32658, 0, 0, 0, 0, 0, 10391, 0, 0, -1]]